Input/IP/Random/Random_030_04_6.lp
min: z;
+y0 +y1 +y2 +y3 +y4 +y5 +y6 +y7 +y8 +y9 +y10 +y11 +y12 +y13 +y14 +y15 +y16 +y17 +y18 +y19 +y20 +y21 +y22 +y23 +y24 +y25 +y26 +y27 +y28 +y29 = 6;
+x0.0 +x0.1 +x0.2 +x0.3 +x0.4 +x0.5 +x0.6 +x0.7 +x0.8 +x0.9 +x0.10 +x0.11 +x0.12 +x0.13 +x0.14 +x0.15 +x0.16 +x0.17 +x0.18 +x0.19 +x0.20 +x0.21 +x0.22 +x0.23 +x0.24 +x0.25 +x0.26 +x0.27 +x0.28 +x0.29 = 1;
+x1.0 +x1.1 +x1.2 +x1.3 +x1.4 +x1.5 +x1.6 +x1.7 +x1.8 +x1.9 +x1.10 +x1.11 +x1.12 +x1.13 +x1.14 +x1.15 +x1.16 +x1.17 +x1.18 +x1.19 +x1.20 +x1.21 +x1.22 +x1.23 +x1.24 +x1.25 +x1.26 +x1.27 +x1.28 +x1.29 = 1;
+x2.0 +x2.1 +x2.2 +x2.3 +x2.4 +x2.5 +x2.6 +x2.7 +x2.8 +x2.9 +x2.10 +x2.11 +x2.12 +x2.13 +x2.14 +x2.15 +x2.16 +x2.17 +x2.18 +x2.19 +x2.20 +x2.21 +x2.22 +x2.23 +x2.24 +x2.25 +x2.26 +x2.27 +x2.28 +x2.29 = 1;
+x3.0 +x3.1 +x3.2 +x3.3 +x3.4 +x3.5 +x3.6 +x3.7 +x3.8 +x3.9 +x3.10 +x3.11 +x3.12 +x3.13 +x3.14 +x3.15 +x3.16 +x3.17 +x3.18 +x3.19 +x3.20 +x3.21 +x3.22 +x3.23 +x3.24 +x3.25 +x3.26 +x3.27 +x3.28 +x3.29 = 1;
+x4.0 +x4.1 +x4.2 +x4.3 +x4.4 +x4.5 +x4.6 +x4.7 +x4.8 +x4.9 +x4.10 +x4.11 +x4.12 +x4.13 +x4.14 +x4.15 +x4.16 +x4.17 +x4.18 +x4.19 +x4.20 +x4.21 +x4.22 +x4.23 +x4.24 +x4.25 +x4.26 +x4.27 +x4.28 +x4.29 = 1;
+x5.0 +x5.1 +x5.2 +x5.3 +x5.4 +x5.5 +x5.6 +x5.7 +x5.8 +x5.9 +x5.10 +x5.11 +x5.12 +x5.13 +x5.14 +x5.15 +x5.16 +x5.17 +x5.18 +x5.19 +x5.20 +x5.21 +x5.22 +x5.23 +x5.24 +x5.25 +x5.26 +x5.27 +x5.28 +x5.29 = 1;
+x6.0 +x6.1 +x6.2 +x6.3 +x6.4 +x6.5 +x6.6 +x6.7 +x6.8 +x6.9 +x6.10 +x6.11 +x6.12 +x6.13 +x6.14 +x6.15 +x6.16 +x6.17 +x6.18 +x6.19 +x6.20 +x6.21 +x6.22 +x6.23 +x6.24 +x6.25 +x6.26 +x6.27 +x6.28 +x6.29 = 1;
+x7.0 +x7.1 +x7.2 +x7.3 +x7.4 +x7.5 +x7.6 +x7.7 +x7.8 +x7.9 +x7.10 +x7.11 +x7.12 +x7.13 +x7.14 +x7.15 +x7.16 +x7.17 +x7.18 +x7.19 +x7.20 +x7.21 +x7.22 +x7.23 +x7.24 +x7.25 +x7.26 +x7.27 +x7.28 +x7.29 = 1;
+x8.0 +x8.1 +x8.2 +x8.3 +x8.4 +x8.5 +x8.6 +x8.7 +x8.8 +x8.9 +x8.10 +x8.11 +x8.12 +x8.13 +x8.14 +x8.15 +x8.16 +x8.17 +x8.18 +x8.19 +x8.20 +x8.21 +x8.22 +x8.23 +x8.24 +x8.25 +x8.26 +x8.27 +x8.28 +x8.29 = 1;
+x9.0 +x9.1 +x9.2 +x9.3 +x9.4 +x9.5 +x9.6 +x9.7 +x9.8 +x9.9 +x9.10 +x9.11 +x9.12 +x9.13 +x9.14 +x9.15 +x9.16 +x9.17 +x9.18 +x9.19 +x9.20 +x9.21 +x9.22 +x9.23 +x9.24 +x9.25 +x9.26 +x9.27 +x9.28 +x9.29 = 1;
+x10.0 +x10.1 +x10.2 +x10.3 +x10.4 +x10.5 +x10.6 +x10.7 +x10.8 +x10.9 +x10.10 +x10.11 +x10.12 +x10.13 +x10.14 +x10.15 +x10.16 +x10.17 +x10.18 +x10.19 +x10.20 +x10.21 +x10.22 +x10.23 +x10.24 +x10.25 +x10.26 +x10.27 +x10.28 +x10.29 = 1;
+x11.0 +x11.1 +x11.2 +x11.3 +x11.4 +x11.5 +x11.6 +x11.7 +x11.8 +x11.9 +x11.10 +x11.11 +x11.12 +x11.13 +x11.14 +x11.15 +x11.16 +x11.17 +x11.18 +x11.19 +x11.20 +x11.21 +x11.22 +x11.23 +x11.24 +x11.25 +x11.26 +x11.27 +x11.28 +x11.29 = 1;
+x12.0 +x12.1 +x12.2 +x12.3 +x12.4 +x12.5 +x12.6 +x12.7 +x12.8 +x12.9 +x12.10 +x12.11 +x12.12 +x12.13 +x12.14 +x12.15 +x12.16 +x12.17 +x12.18 +x12.19 +x12.20 +x12.21 +x12.22 +x12.23 +x12.24 +x12.25 +x12.26 +x12.27 +x12.28 +x12.29 = 1;
+x13.0 +x13.1 +x13.2 +x13.3 +x13.4 +x13.5 +x13.6 +x13.7 +x13.8 +x13.9 +x13.10 +x13.11 +x13.12 +x13.13 +x13.14 +x13.15 +x13.16 +x13.17 +x13.18 +x13.19 +x13.20 +x13.21 +x13.22 +x13.23 +x13.24 +x13.25 +x13.26 +x13.27 +x13.28 +x13.29 = 1;
+x14.0 +x14.1 +x14.2 +x14.3 +x14.4 +x14.5 +x14.6 +x14.7 +x14.8 +x14.9 +x14.10 +x14.11 +x14.12 +x14.13 +x14.14 +x14.15 +x14.16 +x14.17 +x14.18 +x14.19 +x14.20 +x14.21 +x14.22 +x14.23 +x14.24 +x14.25 +x14.26 +x14.27 +x14.28 +x14.29 = 1;
+x15.0 +x15.1 +x15.2 +x15.3 +x15.4 +x15.5 +x15.6 +x15.7 +x15.8 +x15.9 +x15.10 +x15.11 +x15.12 +x15.13 +x15.14 +x15.15 +x15.16 +x15.17 +x15.18 +x15.19 +x15.20 +x15.21 +x15.22 +x15.23 +x15.24 +x15.25 +x15.26 +x15.27 +x15.28 +x15.29 = 1;
+x16.0 +x16.1 +x16.2 +x16.3 +x16.4 +x16.5 +x16.6 +x16.7 +x16.8 +x16.9 +x16.10 +x16.11 +x16.12 +x16.13 +x16.14 +x16.15 +x16.16 +x16.17 +x16.18 +x16.19 +x16.20 +x16.21 +x16.22 +x16.23 +x16.24 +x16.25 +x16.26 +x16.27 +x16.28 +x16.29 = 1;
+x17.0 +x17.1 +x17.2 +x17.3 +x17.4 +x17.5 +x17.6 +x17.7 +x17.8 +x17.9 +x17.10 +x17.11 +x17.12 +x17.13 +x17.14 +x17.15 +x17.16 +x17.17 +x17.18 +x17.19 +x17.20 +x17.21 +x17.22 +x17.23 +x17.24 +x17.25 +x17.26 +x17.27 +x17.28 +x17.29 = 1;
+x18.0 +x18.1 +x18.2 +x18.3 +x18.4 +x18.5 +x18.6 +x18.7 +x18.8 +x18.9 +x18.10 +x18.11 +x18.12 +x18.13 +x18.14 +x18.15 +x18.16 +x18.17 +x18.18 +x18.19 +x18.20 +x18.21 +x18.22 +x18.23 +x18.24 +x18.25 +x18.26 +x18.27 +x18.28 +x18.29 = 1;
+x19.0 +x19.1 +x19.2 +x19.3 +x19.4 +x19.5 +x19.6 +x19.7 +x19.8 +x19.9 +x19.10 +x19.11 +x19.12 +x19.13 +x19.14 +x19.15 +x19.16 +x19.17 +x19.18 +x19.19 +x19.20 +x19.21 +x19.22 +x19.23 +x19.24 +x19.25 +x19.26 +x19.27 +x19.28 +x19.29 = 1;
+x20.0 +x20.1 +x20.2 +x20.3 +x20.4 +x20.5 +x20.6 +x20.7 +x20.8 +x20.9 +x20.10 +x20.11 +x20.12 +x20.13 +x20.14 +x20.15 +x20.16 +x20.17 +x20.18 +x20.19 +x20.20 +x20.21 +x20.22 +x20.23 +x20.24 +x20.25 +x20.26 +x20.27 +x20.28 +x20.29 = 1;
+x21.0 +x21.1 +x21.2 +x21.3 +x21.4 +x21.5 +x21.6 +x21.7 +x21.8 +x21.9 +x21.10 +x21.11 +x21.12 +x21.13 +x21.14 +x21.15 +x21.16 +x21.17 +x21.18 +x21.19 +x21.20 +x21.21 +x21.22 +x21.23 +x21.24 +x21.25 +x21.26 +x21.27 +x21.28 +x21.29 = 1;
+x22.0 +x22.1 +x22.2 +x22.3 +x22.4 +x22.5 +x22.6 +x22.7 +x22.8 +x22.9 +x22.10 +x22.11 +x22.12 +x22.13 +x22.14 +x22.15 +x22.16 +x22.17 +x22.18 +x22.19 +x22.20 +x22.21 +x22.22 +x22.23 +x22.24 +x22.25 +x22.26 +x22.27 +x22.28 +x22.29 = 1;
+x23.0 +x23.1 +x23.2 +x23.3 +x23.4 +x23.5 +x23.6 +x23.7 +x23.8 +x23.9 +x23.10 +x23.11 +x23.12 +x23.13 +x23.14 +x23.15 +x23.16 +x23.17 +x23.18 +x23.19 +x23.20 +x23.21 +x23.22 +x23.23 +x23.24 +x23.25 +x23.26 +x23.27 +x23.28 +x23.29 = 1;
+x24.0 +x24.1 +x24.2 +x24.3 +x24.4 +x24.5 +x24.6 +x24.7 +x24.8 +x24.9 +x24.10 +x24.11 +x24.12 +x24.13 +x24.14 +x24.15 +x24.16 +x24.17 +x24.18 +x24.19 +x24.20 +x24.21 +x24.22 +x24.23 +x24.24 +x24.25 +x24.26 +x24.27 +x24.28 +x24.29 = 1;
+x25.0 +x25.1 +x25.2 +x25.3 +x25.4 +x25.5 +x25.6 +x25.7 +x25.8 +x25.9 +x25.10 +x25.11 +x25.12 +x25.13 +x25.14 +x25.15 +x25.16 +x25.17 +x25.18 +x25.19 +x25.20 +x25.21 +x25.22 +x25.23 +x25.24 +x25.25 +x25.26 +x25.27 +x25.28 +x25.29 = 1;
+x26.0 +x26.1 +x26.2 +x26.3 +x26.4 +x26.5 +x26.6 +x26.7 +x26.8 +x26.9 +x26.10 +x26.11 +x26.12 +x26.13 +x26.14 +x26.15 +x26.16 +x26.17 +x26.18 +x26.19 +x26.20 +x26.21 +x26.22 +x26.23 +x26.24 +x26.25 +x26.26 +x26.27 +x26.28 +x26.29 = 1;
+x27.0 +x27.1 +x27.2 +x27.3 +x27.4 +x27.5 +x27.6 +x27.7 +x27.8 +x27.9 +x27.10 +x27.11 +x27.12 +x27.13 +x27.14 +x27.15 +x27.16 +x27.17 +x27.18 +x27.19 +x27.20 +x27.21 +x27.22 +x27.23 +x27.24 +x27.25 +x27.26 +x27.27 +x27.28 +x27.29 = 1;
+x28.0 +x28.1 +x28.2 +x28.3 +x28.4 +x28.5 +x28.6 +x28.7 +x28.8 +x28.9 +x28.10 +x28.11 +x28.12 +x28.13 +x28.14 +x28.15 +x28.16 +x28.17 +x28.18 +x28.19 +x28.20 +x28.21 +x28.22 +x28.23 +x28.24 +x28.25 +x28.26 +x28.27 +x28.28 +x28.29 = 1;
+x29.0 +x29.1 +x29.2 +x29.3 +x29.4 +x29.5 +x29.6 +x29.7 +x29.8 +x29.9 +x29.10 +x29.11 +x29.12 +x29.13 +x29.14 +x29.15 +x29.16 +x29.17 +x29.18 +x29.19 +x29.20 +x29.21 +x29.22 +x29.23 +x29.24 +x29.25 +x29.26 +x29.27 +x29.28 +x29.29 = 1;
x0.0 <= y0;
x0.1 <= y1;
x0.2 <= y2;
x0.3 <= y3;
x0.4 <= y4;
x0.5 <= y5;
x0.6 <= y6;
x0.7 <= y7;
x0.8 <= y8;
x0.9 <= y9;
x0.10 <= y10;
x0.11 <= y11;
x0.12 <= y12;
x0.13 <= y13;
x0.14 <= y14;
x0.15 <= y15;
x0.16 <= y16;
x0.17 <= y17;
x0.18 <= y18;
x0.19 <= y19;
x0.20 <= y20;
x0.21 <= y21;
x0.22 <= y22;
x0.23 <= y23;
x0.24 <= y24;
x0.25 <= y25;
x0.26 <= y26;
x0.27 <= y27;
x0.28 <= y28;
x0.29 <= y29;
x1.0 <= y0;
x1.1 <= y1;
x1.2 <= y2;
x1.3 <= y3;
x1.4 <= y4;
x1.5 <= y5;
x1.6 <= y6;
x1.7 <= y7;
x1.8 <= y8;
x1.9 <= y9;
x1.10 <= y10;
x1.11 <= y11;
x1.12 <= y12;
x1.13 <= y13;
x1.14 <= y14;
x1.15 <= y15;
x1.16 <= y16;
x1.17 <= y17;
x1.18 <= y18;
x1.19 <= y19;
x1.20 <= y20;
x1.21 <= y21;
x1.22 <= y22;
x1.23 <= y23;
x1.24 <= y24;
x1.25 <= y25;
x1.26 <= y26;
x1.27 <= y27;
x1.28 <= y28;
x1.29 <= y29;
x2.0 <= y0;
x2.1 <= y1;
x2.2 <= y2;
x2.3 <= y3;
x2.4 <= y4;
x2.5 <= y5;
x2.6 <= y6;
x2.7 <= y7;
x2.8 <= y8;
x2.9 <= y9;
x2.10 <= y10;
x2.11 <= y11;
x2.12 <= y12;
x2.13 <= y13;
x2.14 <= y14;
x2.15 <= y15;
x2.16 <= y16;
x2.17 <= y17;
x2.18 <= y18;
x2.19 <= y19;
x2.20 <= y20;
x2.21 <= y21;
x2.22 <= y22;
x2.23 <= y23;
x2.24 <= y24;
x2.25 <= y25;
x2.26 <= y26;
x2.27 <= y27;
x2.28 <= y28;
x2.29 <= y29;
x3.0 <= y0;
x3.1 <= y1;
x3.2 <= y2;
x3.3 <= y3;
x3.4 <= y4;
x3.5 <= y5;
x3.6 <= y6;
x3.7 <= y7;
x3.8 <= y8;
x3.9 <= y9;
x3.10 <= y10;
x3.11 <= y11;
x3.12 <= y12;
x3.13 <= y13;
x3.14 <= y14;
x3.15 <= y15;
x3.16 <= y16;
x3.17 <= y17;
x3.18 <= y18;
x3.19 <= y19;
x3.20 <= y20;
x3.21 <= y21;
x3.22 <= y22;
x3.23 <= y23;
x3.24 <= y24;
x3.25 <= y25;
x3.26 <= y26;
x3.27 <= y27;
x3.28 <= y28;
x3.29 <= y29;
x4.0 <= y0;
x4.1 <= y1;
x4.2 <= y2;
x4.3 <= y3;
x4.4 <= y4;
x4.5 <= y5;
x4.6 <= y6;
x4.7 <= y7;
x4.8 <= y8;
x4.9 <= y9;
x4.10 <= y10;
x4.11 <= y11;
x4.12 <= y12;
x4.13 <= y13;
x4.14 <= y14;
x4.15 <= y15;
x4.16 <= y16;
x4.17 <= y17;
x4.18 <= y18;
x4.19 <= y19;
x4.20 <= y20;
x4.21 <= y21;
x4.22 <= y22;
x4.23 <= y23;
x4.24 <= y24;
x4.25 <= y25;
x4.26 <= y26;
x4.27 <= y27;
x4.28 <= y28;
x4.29 <= y29;
x5.0 <= y0;
x5.1 <= y1;
x5.2 <= y2;
x5.3 <= y3;
x5.4 <= y4;
x5.5 <= y5;
x5.6 <= y6;
x5.7 <= y7;
x5.8 <= y8;
x5.9 <= y9;
x5.10 <= y10;
x5.11 <= y11;
x5.12 <= y12;
x5.13 <= y13;
x5.14 <= y14;
x5.15 <= y15;
x5.16 <= y16;
x5.17 <= y17;
x5.18 <= y18;
x5.19 <= y19;
x5.20 <= y20;
x5.21 <= y21;
x5.22 <= y22;
x5.23 <= y23;
x5.24 <= y24;
x5.25 <= y25;
x5.26 <= y26;
x5.27 <= y27;
x5.28 <= y28;
x5.29 <= y29;
x6.0 <= y0;
x6.1 <= y1;
x6.2 <= y2;
x6.3 <= y3;
x6.4 <= y4;
x6.5 <= y5;
x6.6 <= y6;
x6.7 <= y7;
x6.8 <= y8;
x6.9 <= y9;
x6.10 <= y10;
x6.11 <= y11;
x6.12 <= y12;
x6.13 <= y13;
x6.14 <= y14;
x6.15 <= y15;
x6.16 <= y16;
x6.17 <= y17;
x6.18 <= y18;
x6.19 <= y19;
x6.20 <= y20;
x6.21 <= y21;
x6.22 <= y22;
x6.23 <= y23;
x6.24 <= y24;
x6.25 <= y25;
x6.26 <= y26;
x6.27 <= y27;
x6.28 <= y28;
x6.29 <= y29;
x7.0 <= y0;
x7.1 <= y1;
x7.2 <= y2;
x7.3 <= y3;
x7.4 <= y4;
x7.5 <= y5;
x7.6 <= y6;
x7.7 <= y7;
x7.8 <= y8;
x7.9 <= y9;
x7.10 <= y10;
x7.11 <= y11;
x7.12 <= y12;
x7.13 <= y13;
x7.14 <= y14;
x7.15 <= y15;
x7.16 <= y16;
x7.17 <= y17;
x7.18 <= y18;
x7.19 <= y19;
x7.20 <= y20;
x7.21 <= y21;
x7.22 <= y22;
x7.23 <= y23;
x7.24 <= y24;
x7.25 <= y25;
x7.26 <= y26;
x7.27 <= y27;
x7.28 <= y28;
x7.29 <= y29;
x8.0 <= y0;
x8.1 <= y1;
x8.2 <= y2;
x8.3 <= y3;
x8.4 <= y4;
x8.5 <= y5;
x8.6 <= y6;
x8.7 <= y7;
x8.8 <= y8;
x8.9 <= y9;
x8.10 <= y10;
x8.11 <= y11;
x8.12 <= y12;
x8.13 <= y13;
x8.14 <= y14;
x8.15 <= y15;
x8.16 <= y16;
x8.17 <= y17;
x8.18 <= y18;
x8.19 <= y19;
x8.20 <= y20;
x8.21 <= y21;
x8.22 <= y22;
x8.23 <= y23;
x8.24 <= y24;
x8.25 <= y25;
x8.26 <= y26;
x8.27 <= y27;
x8.28 <= y28;
x8.29 <= y29;
x9.0 <= y0;
x9.1 <= y1;
x9.2 <= y2;
x9.3 <= y3;
x9.4 <= y4;
x9.5 <= y5;
x9.6 <= y6;
x9.7 <= y7;
x9.8 <= y8;
x9.9 <= y9;
x9.10 <= y10;
x9.11 <= y11;
x9.12 <= y12;
x9.13 <= y13;
x9.14 <= y14;
x9.15 <= y15;
x9.16 <= y16;
x9.17 <= y17;
x9.18 <= y18;
x9.19 <= y19;
x9.20 <= y20;
x9.21 <= y21;
x9.22 <= y22;
x9.23 <= y23;
x9.24 <= y24;
x9.25 <= y25;
x9.26 <= y26;
x9.27 <= y27;
x9.28 <= y28;
x9.29 <= y29;
x10.0 <= y0;
x10.1 <= y1;
x10.2 <= y2;
x10.3 <= y3;
x10.4 <= y4;
x10.5 <= y5;
x10.6 <= y6;
x10.7 <= y7;
x10.8 <= y8;
x10.9 <= y9;
x10.10 <= y10;
x10.11 <= y11;
x10.12 <= y12;
x10.13 <= y13;
x10.14 <= y14;
x10.15 <= y15;
x10.16 <= y16;
x10.17 <= y17;
x10.18 <= y18;
x10.19 <= y19;
x10.20 <= y20;
x10.21 <= y21;
x10.22 <= y22;
x10.23 <= y23;
x10.24 <= y24;
x10.25 <= y25;
x10.26 <= y26;
x10.27 <= y27;
x10.28 <= y28;
x10.29 <= y29;
x11.0 <= y0;
x11.1 <= y1;
x11.2 <= y2;
x11.3 <= y3;
x11.4 <= y4;
x11.5 <= y5;
x11.6 <= y6;
x11.7 <= y7;
x11.8 <= y8;
x11.9 <= y9;
x11.10 <= y10;
x11.11 <= y11;
x11.12 <= y12;
x11.13 <= y13;
x11.14 <= y14;
x11.15 <= y15;
x11.16 <= y16;
x11.17 <= y17;
x11.18 <= y18;
x11.19 <= y19;
x11.20 <= y20;
x11.21 <= y21;
x11.22 <= y22;
x11.23 <= y23;
x11.24 <= y24;
x11.25 <= y25;
x11.26 <= y26;
x11.27 <= y27;
x11.28 <= y28;
x11.29 <= y29;
x12.0 <= y0;
x12.1 <= y1;
x12.2 <= y2;
x12.3 <= y3;
x12.4 <= y4;
x12.5 <= y5;
x12.6 <= y6;
x12.7 <= y7;
x12.8 <= y8;
x12.9 <= y9;
x12.10 <= y10;
x12.11 <= y11;
x12.12 <= y12;
x12.13 <= y13;
x12.14 <= y14;
x12.15 <= y15;
x12.16 <= y16;
x12.17 <= y17;
x12.18 <= y18;
x12.19 <= y19;
x12.20 <= y20;
x12.21 <= y21;
x12.22 <= y22;
x12.23 <= y23;
x12.24 <= y24;
x12.25 <= y25;
x12.26 <= y26;
x12.27 <= y27;
x12.28 <= y28;
x12.29 <= y29;
x13.0 <= y0;
x13.1 <= y1;
x13.2 <= y2;
x13.3 <= y3;
x13.4 <= y4;
x13.5 <= y5;
x13.6 <= y6;
x13.7 <= y7;
x13.8 <= y8;
x13.9 <= y9;
x13.10 <= y10;
x13.11 <= y11;
x13.12 <= y12;
x13.13 <= y13;
x13.14 <= y14;
x13.15 <= y15;
x13.16 <= y16;
x13.17 <= y17;
x13.18 <= y18;
x13.19 <= y19;
x13.20 <= y20;
x13.21 <= y21;
x13.22 <= y22;
x13.23 <= y23;
x13.24 <= y24;
x13.25 <= y25;
x13.26 <= y26;
x13.27 <= y27;
x13.28 <= y28;
x13.29 <= y29;
x14.0 <= y0;
x14.1 <= y1;
x14.2 <= y2;
x14.3 <= y3;
x14.4 <= y4;
x14.5 <= y5;
x14.6 <= y6;
x14.7 <= y7;
x14.8 <= y8;
x14.9 <= y9;
x14.10 <= y10;
x14.11 <= y11;
x14.12 <= y12;
x14.13 <= y13;
x14.14 <= y14;
x14.15 <= y15;
x14.16 <= y16;
x14.17 <= y17;
x14.18 <= y18;
x14.19 <= y19;
x14.20 <= y20;
x14.21 <= y21;
x14.22 <= y22;
x14.23 <= y23;
x14.24 <= y24;
x14.25 <= y25;
x14.26 <= y26;
x14.27 <= y27;
x14.28 <= y28;
x14.29 <= y29;
x15.0 <= y0;
x15.1 <= y1;
x15.2 <= y2;
x15.3 <= y3;
x15.4 <= y4;
x15.5 <= y5;
x15.6 <= y6;
x15.7 <= y7;
x15.8 <= y8;
x15.9 <= y9;
x15.10 <= y10;
x15.11 <= y11;
x15.12 <= y12;
x15.13 <= y13;
x15.14 <= y14;
x15.15 <= y15;
x15.16 <= y16;
x15.17 <= y17;
x15.18 <= y18;
x15.19 <= y19;
x15.20 <= y20;
x15.21 <= y21;
x15.22 <= y22;
x15.23 <= y23;
x15.24 <= y24;
x15.25 <= y25;
x15.26 <= y26;
x15.27 <= y27;
x15.28 <= y28;
x15.29 <= y29;
x16.0 <= y0;
x16.1 <= y1;
x16.2 <= y2;
x16.3 <= y3;
x16.4 <= y4;
x16.5 <= y5;
x16.6 <= y6;
x16.7 <= y7;
x16.8 <= y8;
x16.9 <= y9;
x16.10 <= y10;
x16.11 <= y11;
x16.12 <= y12;
x16.13 <= y13;
x16.14 <= y14;
x16.15 <= y15;
x16.16 <= y16;
x16.17 <= y17;
x16.18 <= y18;
x16.19 <= y19;
x16.20 <= y20;
x16.21 <= y21;
x16.22 <= y22;
x16.23 <= y23;
x16.24 <= y24;
x16.25 <= y25;
x16.26 <= y26;
x16.27 <= y27;
x16.28 <= y28;
x16.29 <= y29;
x17.0 <= y0;
x17.1 <= y1;
x17.2 <= y2;
x17.3 <= y3;
x17.4 <= y4;
x17.5 <= y5;
x17.6 <= y6;
x17.7 <= y7;
x17.8 <= y8;
x17.9 <= y9;
x17.10 <= y10;
x17.11 <= y11;
x17.12 <= y12;
x17.13 <= y13;
x17.14 <= y14;
x17.15 <= y15;
x17.16 <= y16;
x17.17 <= y17;
x17.18 <= y18;
x17.19 <= y19;
x17.20 <= y20;
x17.21 <= y21;
x17.22 <= y22;
x17.23 <= y23;
x17.24 <= y24;
x17.25 <= y25;
x17.26 <= y26;
x17.27 <= y27;
x17.28 <= y28;
x17.29 <= y29;
x18.0 <= y0;
x18.1 <= y1;
x18.2 <= y2;
x18.3 <= y3;
x18.4 <= y4;
x18.5 <= y5;
x18.6 <= y6;
x18.7 <= y7;
x18.8 <= y8;
x18.9 <= y9;
x18.10 <= y10;
x18.11 <= y11;
x18.12 <= y12;
x18.13 <= y13;
x18.14 <= y14;
x18.15 <= y15;
x18.16 <= y16;
x18.17 <= y17;
x18.18 <= y18;
x18.19 <= y19;
x18.20 <= y20;
x18.21 <= y21;
x18.22 <= y22;
x18.23 <= y23;
x18.24 <= y24;
x18.25 <= y25;
x18.26 <= y26;
x18.27 <= y27;
x18.28 <= y28;
x18.29 <= y29;
x19.0 <= y0;
x19.1 <= y1;
x19.2 <= y2;
x19.3 <= y3;
x19.4 <= y4;
x19.5 <= y5;
x19.6 <= y6;
x19.7 <= y7;
x19.8 <= y8;
x19.9 <= y9;
x19.10 <= y10;
x19.11 <= y11;
x19.12 <= y12;
x19.13 <= y13;
x19.14 <= y14;
x19.15 <= y15;
x19.16 <= y16;
x19.17 <= y17;
x19.18 <= y18;
x19.19 <= y19;
x19.20 <= y20;
x19.21 <= y21;
x19.22 <= y22;
x19.23 <= y23;
x19.24 <= y24;
x19.25 <= y25;
x19.26 <= y26;
x19.27 <= y27;
x19.28 <= y28;
x19.29 <= y29;
x20.0 <= y0;
x20.1 <= y1;
x20.2 <= y2;
x20.3 <= y3;
x20.4 <= y4;
x20.5 <= y5;
x20.6 <= y6;
x20.7 <= y7;
x20.8 <= y8;
x20.9 <= y9;
x20.10 <= y10;
x20.11 <= y11;
x20.12 <= y12;
x20.13 <= y13;
x20.14 <= y14;
x20.15 <= y15;
x20.16 <= y16;
x20.17 <= y17;
x20.18 <= y18;
x20.19 <= y19;
x20.20 <= y20;
x20.21 <= y21;
x20.22 <= y22;
x20.23 <= y23;
x20.24 <= y24;
x20.25 <= y25;
x20.26 <= y26;
x20.27 <= y27;
x20.28 <= y28;
x20.29 <= y29;
x21.0 <= y0;
x21.1 <= y1;
x21.2 <= y2;
x21.3 <= y3;
x21.4 <= y4;
x21.5 <= y5;
x21.6 <= y6;
x21.7 <= y7;
x21.8 <= y8;
x21.9 <= y9;
x21.10 <= y10;
x21.11 <= y11;
x21.12 <= y12;
x21.13 <= y13;
x21.14 <= y14;
x21.15 <= y15;
x21.16 <= y16;
x21.17 <= y17;
x21.18 <= y18;
x21.19 <= y19;
x21.20 <= y20;
x21.21 <= y21;
x21.22 <= y22;
x21.23 <= y23;
x21.24 <= y24;
x21.25 <= y25;
x21.26 <= y26;
x21.27 <= y27;
x21.28 <= y28;
x21.29 <= y29;
x22.0 <= y0;
x22.1 <= y1;
x22.2 <= y2;
x22.3 <= y3;
x22.4 <= y4;
x22.5 <= y5;
x22.6 <= y6;
x22.7 <= y7;
x22.8 <= y8;
x22.9 <= y9;
x22.10 <= y10;
x22.11 <= y11;
x22.12 <= y12;
x22.13 <= y13;
x22.14 <= y14;
x22.15 <= y15;
x22.16 <= y16;
x22.17 <= y17;
x22.18 <= y18;
x22.19 <= y19;
x22.20 <= y20;
x22.21 <= y21;
x22.22 <= y22;
x22.23 <= y23;
x22.24 <= y24;
x22.25 <= y25;
x22.26 <= y26;
x22.27 <= y27;
x22.28 <= y28;
x22.29 <= y29;
x23.0 <= y0;
x23.1 <= y1;
x23.2 <= y2;
x23.3 <= y3;
x23.4 <= y4;
x23.5 <= y5;
x23.6 <= y6;
x23.7 <= y7;
x23.8 <= y8;
x23.9 <= y9;
x23.10 <= y10;
x23.11 <= y11;
x23.12 <= y12;
x23.13 <= y13;
x23.14 <= y14;
x23.15 <= y15;
x23.16 <= y16;
x23.17 <= y17;
x23.18 <= y18;
x23.19 <= y19;
x23.20 <= y20;
x23.21 <= y21;
x23.22 <= y22;
x23.23 <= y23;
x23.24 <= y24;
x23.25 <= y25;
x23.26 <= y26;
x23.27 <= y27;
x23.28 <= y28;
x23.29 <= y29;
x24.0 <= y0;
x24.1 <= y1;
x24.2 <= y2;
x24.3 <= y3;
x24.4 <= y4;
x24.5 <= y5;
x24.6 <= y6;
x24.7 <= y7;
x24.8 <= y8;
x24.9 <= y9;
x24.10 <= y10;
x24.11 <= y11;
x24.12 <= y12;
x24.13 <= y13;
x24.14 <= y14;
x24.15 <= y15;
x24.16 <= y16;
x24.17 <= y17;
x24.18 <= y18;
x24.19 <= y19;
x24.20 <= y20;
x24.21 <= y21;
x24.22 <= y22;
x24.23 <= y23;
x24.24 <= y24;
x24.25 <= y25;
x24.26 <= y26;
x24.27 <= y27;
x24.28 <= y28;
x24.29 <= y29;
x25.0 <= y0;
x25.1 <= y1;
x25.2 <= y2;
x25.3 <= y3;
x25.4 <= y4;
x25.5 <= y5;
x25.6 <= y6;
x25.7 <= y7;
x25.8 <= y8;
x25.9 <= y9;
x25.10 <= y10;
x25.11 <= y11;
x25.12 <= y12;
x25.13 <= y13;
x25.14 <= y14;
x25.15 <= y15;
x25.16 <= y16;
x25.17 <= y17;
x25.18 <= y18;
x25.19 <= y19;
x25.20 <= y20;
x25.21 <= y21;
x25.22 <= y22;
x25.23 <= y23;
x25.24 <= y24;
x25.25 <= y25;
x25.26 <= y26;
x25.27 <= y27;
x25.28 <= y28;
x25.29 <= y29;
x26.0 <= y0;
x26.1 <= y1;
x26.2 <= y2;
x26.3 <= y3;
x26.4 <= y4;
x26.5 <= y5;
x26.6 <= y6;
x26.7 <= y7;
x26.8 <= y8;
x26.9 <= y9;
x26.10 <= y10;
x26.11 <= y11;
x26.12 <= y12;
x26.13 <= y13;
x26.14 <= y14;
x26.15 <= y15;
x26.16 <= y16;
x26.17 <= y17;
x26.18 <= y18;
x26.19 <= y19;
x26.20 <= y20;
x26.21 <= y21;
x26.22 <= y22;
x26.23 <= y23;
x26.24 <= y24;
x26.25 <= y25;
x26.26 <= y26;
x26.27 <= y27;
x26.28 <= y28;
x26.29 <= y29;
x27.0 <= y0;
x27.1 <= y1;
x27.2 <= y2;
x27.3 <= y3;
x27.4 <= y4;
x27.5 <= y5;
x27.6 <= y6;
x27.7 <= y7;
x27.8 <= y8;
x27.9 <= y9;
x27.10 <= y10;
x27.11 <= y11;
x27.12 <= y12;
x27.13 <= y13;
x27.14 <= y14;
x27.15 <= y15;
x27.16 <= y16;
x27.17 <= y17;
x27.18 <= y18;
x27.19 <= y19;
x27.20 <= y20;
x27.21 <= y21;
x27.22 <= y22;
x27.23 <= y23;
x27.24 <= y24;
x27.25 <= y25;
x27.26 <= y26;
x27.27 <= y27;
x27.28 <= y28;
x27.29 <= y29;
x28.0 <= y0;
x28.1 <= y1;
x28.2 <= y2;
x28.3 <= y3;
x28.4 <= y4;
x28.5 <= y5;
x28.6 <= y6;
x28.7 <= y7;
x28.8 <= y8;
x28.9 <= y9;
x28.10 <= y10;
x28.11 <= y11;
x28.12 <= y12;
x28.13 <= y13;
x28.14 <= y14;
x28.15 <= y15;
x28.16 <= y16;
x28.17 <= y17;
x28.18 <= y18;
x28.19 <= y19;
x28.20 <= y20;
x28.21 <= y21;
x28.22 <= y22;
x28.23 <= y23;
x28.24 <= y24;
x28.25 <= y25;
x28.26 <= y26;
x28.27 <= y27;
x28.28 <= y28;
x28.29 <= y29;
x29.0 <= y0;
x29.1 <= y1;
x29.2 <= y2;
x29.3 <= y3;
x29.4 <= y4;
x29.5 <= y5;
x29.6 <= y6;
x29.7 <= y7;
x29.8 <= y8;
x29.9 <= y9;
x29.10 <= y10;
x29.11 <= y11;
x29.12 <= y12;
x29.13 <= y13;
x29.14 <= y14;
x29.15 <= y15;
x29.16 <= y16;
x29.17 <= y17;
x29.18 <= y18;
x29.19 <= y19;
x29.20 <= y20;
x29.21 <= y21;
x29.22 <= y22;
x29.23 <= y23;
x29.24 <= y24;
x29.25 <= y25;
x29.26 <= y26;
x29.27 <= y27;
x29.28 <= y28;
x29.29 <= y29;
 z +0x0.0 -51x0.1 -65x0.2 -38x0.3 -44x0.4 -40x0.5 -29x0.6 -26x0.7 -51x0.8 -57x0.9 -49x0.10 -12x0.11 -44x0.12 -26x0.13 -43x0.14 -55x0.15 -70x0.16 -89x0.17 -71x0.18 -31x0.19 -68x0.20 -57x0.21 -51x0.22 -48x0.23 -59x0.24 -53x0.25 -56x0.26 -73x0.27 -77x0.28 -78x0.29  >= 0;
 z -51x1.0 +0x1.1 -38x1.2 -61x1.3 -11x1.4 -65x1.5 -39x1.6 -25x1.7 -55x1.8 -44x1.9 -52x1.10 -53x1.11 -35x1.12 -39x1.13 -61x1.14 -43x1.15 -82x1.16 -81x1.17 -54x1.18 -54x1.19 -53x1.20 -48x1.21 -21x1.22 -72x1.23 -55x1.24 -36x1.25 -49x1.26 -54x1.27 -66x1.28 -27x1.29  >= 0;
 z -65x2.0 -38x2.1 +0x2.2 -42x2.3 -34x2.4 -55x2.5 -52x2.6 -46x2.7 -35x2.8 -30x2.9 -52x2.10 -53x2.11 -58x2.12 -55x2.13 -28x2.14 -10x2.15 -85x2.16 -86x2.17 -72x2.18 -40x2.19 -53x2.20 -32x2.21 -32x2.22 -53x2.23 -22x2.24 -54x2.25 -47x2.26 -16x2.27 -52x2.28 -53x2.29  >= 0;
 z -38x3.0 -61x3.1 -42x3.2 +0x3.3 -50x3.4 -16x3.5 -38x3.6 -52x3.7 -42x3.8 -39x3.9 -25x3.10 -26x3.11 -67x3.12 -26x3.13 -14x3.14 -32x3.15 -70x3.16 -71x3.17 -48x3.18 -26x3.19 -39x3.20 -40x3.21 -40x3.22 -11x3.23 -44x3.24 -56x3.25 -33x3.26 -50x3.27 -51x3.28 -54x3.29  >= 0;
 z -44x4.0 -11x4.1 -34x4.2 -50x4.3 +0x4.4 -58x4.5 -32x4.6 -18x4.7 -44x4.8 -55x4.9 -60x4.10 -42x4.11 -24x4.12 -28x4.13 -50x4.14 -32x4.15 -72x4.16 -70x4.17 -43x4.18 -43x4.19 -42x4.20 -59x4.21 -10x4.22 -61x4.23 -44x4.24 -25x4.25 -38x4.26 -50x4.27 -55x4.28 -38x4.29  >= 0;
 z -40x5.0 -65x5.1 -55x5.2 -16x5.3 -58x5.4 +0x5.5 -51x5.6 -40x5.7 -50x5.8 -41x5.9 -33x5.10 -34x5.11 -61x5.12 -30x5.13 -27x5.14 -45x5.15 -74x5.16 -55x5.17 -64x5.18 -15x5.19 -43x5.20 -56x5.21 -56x5.22 -27x5.23 -57x5.24 -53x5.25 -46x5.26 -63x5.27 -66x5.28 -67x5.29  >= 0;
 z -29x6.0 -39x6.1 -52x6.2 -38x6.3 -32x6.4 -51x6.5 +0x6.6 -14x6.7 -45x6.8 -62x6.9 -28x6.10 -17x6.11 -56x6.12 -31x6.13 -29x6.14 -42x6.15 -74x6.16 -60x6.17 -47x6.18 -36x6.19 -46x6.20 -62x6.21 -42x6.22 -49x6.23 -30x6.24 -29x6.25 -48x6.26 -60x6.27 -82x6.28 -66x6.29  >= 0;
 z -26x7.0 -25x7.1 -46x7.2 -52x7.3 -18x7.4 -40x7.5 -14x7.6 +0x7.7 -46x7.8 -66x7.9 -42x7.10 -31x7.11 -42x7.12 -45x7.13 -43x7.14 -49x7.15 -88x7.16 -74x7.17 -45x7.18 -50x7.19 -44x7.20 -58x7.21 -28x7.22 -63x7.23 -44x7.24 -27x7.25 -56x7.26 -62x7.27 -73x7.28 -52x7.29  >= 0;
 z -51x8.0 -55x8.1 -35x8.2 -42x8.3 -44x8.4 -50x8.5 -45x8.6 -46x8.7 +0x8.8 -58x8.9 -17x8.10 -54x8.11 -63x8.12 -50x8.13 -47x8.14 -45x8.15 -70x8.16 -94x8.17 -37x8.18 -35x8.19 -36x8.20 -67x8.21 -54x8.22 -38x8.23 -57x8.24 -19x8.25 -66x8.26 -51x8.27 -51x8.28 -57x8.29  >= 0;
 z -57x9.0 -44x9.1 -30x9.2 -39x9.3 -55x9.4 -41x9.5 -62x9.6 -66x9.7 -58x9.8 +0x9.9 -41x9.10 -45x9.11 -36x9.12 -41x9.13 -38x9.14 -31x9.15 -85x9.16 -66x9.17 -45x9.18 -26x9.19 -63x9.20 -62x9.21 -53x9.22 -50x9.23 -43x9.24 -63x9.25 -57x9.26 -46x9.27 -82x9.28 -71x9.29  >= 0;
 z -49x10.0 -52x10.1 -52x10.2 -25x10.3 -60x10.4 -33x10.5 -28x10.6 -42x10.7 -17x10.8 -41x10.9 +0x10.10 -37x10.11 -77x10.12 -33x10.13 -30x10.14 -48x10.15 -53x10.16 -77x10.17 -54x10.18 -18x10.19 -53x10.20 -65x10.21 -65x10.22 -36x10.23 -58x10.24 -36x10.25 -49x10.26 -66x10.27 -58x10.28 -70x10.29  >= 0;
 z -12x11.0 -53x11.1 -53x11.2 -26x11.3 -42x11.4 -34x11.5 -17x11.6 -31x11.7 -54x11.8 -45x11.9 -37x11.10 +0x11.11 -56x11.12 -14x11.13 -31x11.14 -43x11.15 -58x11.16 -77x11.17 -62x11.18 -19x11.19 -56x11.20 -45x11.21 -39x11.22 -37x11.23 -47x11.24 -46x11.25 -44x11.26 -61x11.27 -65x11.28 -66x11.29  >= 0;
 z -44x12.0 -35x12.1 -58x12.2 -67x12.3 -24x12.4 -61x12.5 -56x12.6 -42x12.7 -63x12.8 -36x12.9 -77x12.10 -56x12.11 +0x12.12 -52x12.13 -53x12.14 -54x12.15 -96x12.16 -73x12.17 -67x12.18 -62x12.19 -66x12.20 -81x12.21 -34x12.22 -78x12.23 -66x12.24 -49x12.25 -34x12.26 -72x12.27 -79x12.28 -62x12.29  >= 0;
 z -26x13.0 -39x13.1 -55x13.2 -26x13.3 -28x13.4 -30x13.5 -31x13.6 -45x13.7 -50x13.8 -41x13.9 -33x13.10 -14x13.11 -52x13.12 +0x13.13 -27x13.14 -45x13.15 -44x13.16 -69x13.17 -71x13.18 -15x13.19 -52x13.20 -57x13.21 -38x13.22 -37x13.23 -51x13.24 -53x13.25 -30x13.26 -63x13.27 -77x13.28 -66x13.29  >= 0;
 z -43x14.0 -61x14.1 -28x14.2 -14x14.3 -50x14.4 -27x14.5 -29x14.6 -43x14.7 -47x14.8 -38x14.9 -30x14.10 -31x14.11 -53x14.12 -27x14.13 +0x14.14 -18x14.15 -71x14.16 -58x14.17 -60x14.18 -12x14.19 -25x14.20 -54x14.21 -40x14.22 -25x14.23 -30x14.24 -42x14.25 -19x14.26 -36x14.27 -65x14.28 -40x14.29  >= 0;
 z -55x15.0 -43x15.1 -10x15.2 -32x15.3 -32x15.4 -45x15.5 -42x15.6 -49x15.7 -45x15.8 -31x15.9 -48x15.10 -43x15.11 -54x15.12 -45x15.13 -18x15.14 +0x15.15 -75x15.16 -76x15.17 -75x15.18 -30x15.19 -43x15.20 -42x15.21 -22x15.22 -43x15.23 -12x15.24 -57x15.25 -37x15.26 -18x15.27 -62x15.28 -58x15.29  >= 0;
 z -70x16.0 -82x16.1 -85x16.2 -70x16.3 -72x16.4 -74x16.5 -74x16.6 -88x16.7 -70x16.8 -85x16.9 -53x16.10 -58x16.11 -96x16.12 -44x16.13 -71x16.14 -75x16.15 +0x16.16 -51x16.17 -107x16.18 -59x16.19 -96x16.20 -101x16.21 -82x16.22 -81x16.23 -86x16.24 -89x16.25 -68x16.26 -93x16.27 -107x16.28 -109x16.29  >= 0;
 z -89x17.0 -81x17.1 -86x17.2 -71x17.3 -70x17.4 -55x17.5 -60x17.6 -74x17.7 -94x17.8 -66x17.9 -77x17.10 -77x17.11 -73x17.12 -69x17.13 -58x17.14 -76x17.15 -51x17.16 +0x17.17 -107x17.18 -59x17.19 -83x17.20 -76x17.21 -80x17.22 -82x17.23 -88x17.24 -89x17.25 -39x17.26 -94x17.27 -56x17.28 -97x17.29  >= 0;
 z -71x18.0 -54x18.1 -72x18.2 -48x18.3 -43x18.4 -64x18.5 -47x18.6 -45x18.7 -37x18.8 -45x18.9 -54x18.10 -62x18.11 -67x18.12 -71x18.13 -60x18.14 -75x18.15 -107x18.16 -107x18.17 +0x18.18 -56x18.19 -35x18.20 -71x18.21 -53x18.22 -52x18.23 -66x18.24 -18x18.25 -77x18.26 -88x18.27 -88x18.28 -56x18.29  >= 0;
 z -31x19.0 -54x19.1 -40x19.2 -26x19.3 -43x19.4 -15x19.5 -36x19.6 -50x19.7 -35x19.8 -26x19.9 -18x19.10 -19x19.11 -62x19.12 -15x19.13 -12x19.14 -30x19.15 -59x19.16 -59x19.17 -56x19.18 +0x19.19 -37x19.20 -64x19.21 -52x19.22 -37x19.23 -42x19.24 -38x19.25 -31x19.26 -48x19.27 -62x19.28 -52x19.29  >= 0;
 z -68x20.0 -53x20.1 -53x20.2 -39x20.3 -42x20.4 -43x20.5 -46x20.6 -44x20.7 -36x20.8 -63x20.9 -53x20.10 -56x20.11 -66x20.12 -52x20.13 -25x20.14 -43x20.15 -96x20.16 -83x20.17 -35x20.18 -37x20.19 +0x20.20 -36x20.21 -52x20.22 -50x20.23 -55x20.24 -17x20.25 -44x20.26 -61x20.27 -56x20.28 -55x20.29  >= 0;
 z -57x21.0 -48x21.1 -32x21.2 -40x21.3 -59x21.4 -56x21.5 -62x21.6 -58x21.7 -67x21.8 -62x21.9 -65x21.10 -45x21.11 -81x21.12 -57x21.13 -54x21.14 -42x21.15 -101x21.16 -76x21.17 -71x21.18 -64x21.19 -36x21.20 +0x21.21 -60x21.22 -51x21.23 -54x21.24 -53x21.25 -47x21.26 -47x21.27 -20x21.28 -21x21.29  >= 0;
 z -51x22.0 -21x22.1 -32x22.2 -40x22.3 -10x22.4 -56x22.5 -42x22.6 -28x22.7 -54x22.8 -53x22.9 -65x22.10 -39x22.11 -34x22.12 -38x22.13 -40x22.14 -22x22.15 -82x22.16 -80x22.17 -53x22.18 -52x22.19 -52x22.20 -60x22.21 +0x22.22 -51x22.23 -34x22.24 -35x22.25 -48x22.26 -40x22.27 -65x22.28 -39x22.29  >= 0;
 z -48x23.0 -72x23.1 -53x23.2 -11x23.3 -61x23.4 -27x23.5 -49x23.6 -63x23.7 -38x23.8 -50x23.9 -36x23.10 -37x23.11 -78x23.12 -37x23.13 -25x23.14 -43x23.15 -81x23.16 -82x23.17 -52x23.18 -37x23.19 -50x23.20 -51x23.21 -51x23.22 +0x23.23 -55x23.24 -57x23.25 -44x23.26 -61x23.27 -40x23.28 -65x23.29  >= 0;
 z -59x24.0 -55x24.1 -22x24.2 -44x24.3 -44x24.4 -57x24.5 -30x24.6 -44x24.7 -57x24.8 -43x24.9 -58x24.10 -47x24.11 -66x24.12 -51x24.13 -30x24.14 -12x24.15 -86x24.16 -88x24.17 -66x24.18 -42x24.19 -55x24.20 -54x24.21 -34x24.22 -55x24.23 +0x24.24 -59x24.25 -49x24.26 -30x24.27 -74x24.28 -70x24.29  >= 0;
 z -53x25.0 -36x25.1 -54x25.2 -56x25.3 -25x25.4 -53x25.5 -29x25.6 -27x25.7 -19x25.8 -63x25.9 -36x25.10 -46x25.11 -49x25.12 -53x25.13 -42x25.14 -57x25.15 -89x25.16 -89x25.17 -18x25.18 -38x25.19 -17x25.20 -53x25.21 -35x25.22 -57x25.23 -59x25.24 +0x25.25 -61x25.26 -70x25.27 -70x25.28 -38x25.29  >= 0;
 z -56x26.0 -49x26.1 -47x26.2 -33x26.3 -38x26.4 -46x26.5 -48x26.6 -56x26.7 -66x26.8 -57x26.9 -49x26.10 -44x26.11 -34x26.12 -30x26.13 -19x26.14 -37x26.15 -68x26.16 -39x26.17 -77x26.18 -31x26.19 -44x26.20 -47x26.21 -48x26.22 -44x26.23 -49x26.24 -61x26.25 +0x26.26 -55x26.27 -67x26.28 -59x26.29  >= 0;
 z -73x27.0 -54x27.1 -16x27.2 -50x27.3 -50x27.4 -63x27.5 -60x27.6 -62x27.7 -51x27.8 -46x27.9 -66x27.10 -61x27.11 -72x27.12 -63x27.13 -36x27.14 -18x27.15 -93x27.16 -94x27.17 -88x27.18 -48x27.19 -61x27.20 -47x27.21 -40x27.22 -61x27.23 -30x27.24 -70x27.25 -55x27.26 +0x27.27 -67x27.28 -68x27.29  >= 0;
 z -77x28.0 -66x28.1 -52x28.2 -51x28.3 -55x28.4 -66x28.5 -82x28.6 -73x28.7 -51x28.8 -82x28.9 -58x28.10 -65x28.11 -79x28.12 -77x28.13 -65x28.14 -62x28.15 -107x28.16 -56x28.17 -88x28.18 -62x28.19 -56x28.20 -20x28.21 -65x28.22 -40x28.23 -74x28.24 -70x28.25 -67x28.26 -67x28.27 +0x28.28 -41x28.29  >= 0;
 z -78x29.0 -27x29.1 -53x29.2 -54x29.3 -38x29.4 -67x29.5 -66x29.6 -52x29.7 -57x29.8 -71x29.9 -70x29.10 -66x29.11 -62x29.12 -66x29.13 -40x29.14 -58x29.15 -109x29.16 -97x29.17 -56x29.18 -52x29.19 -55x29.20 -21x29.21 -39x29.22 -65x29.23 -70x29.24 -38x29.25 -59x29.26 -68x29.27 -41x29.28 +0x29.29  >= 0;
bin y0;
bin x0.0;
bin x0.1;
bin x0.2;
bin x0.3;
bin x0.4;
bin x0.5;
bin x0.6;
bin x0.7;
bin x0.8;
bin x0.9;
bin x0.10;
bin x0.11;
bin x0.12;
bin x0.13;
bin x0.14;
bin x0.15;
bin x0.16;
bin x0.17;
bin x0.18;
bin x0.19;
bin x0.20;
bin x0.21;
bin x0.22;
bin x0.23;
bin x0.24;
bin x0.25;
bin x0.26;
bin x0.27;
bin x0.28;
bin x0.29;
bin y1;
bin x1.0;
bin x1.1;
bin x1.2;
bin x1.3;
bin x1.4;
bin x1.5;
bin x1.6;
bin x1.7;
bin x1.8;
bin x1.9;
bin x1.10;
bin x1.11;
bin x1.12;
bin x1.13;
bin x1.14;
bin x1.15;
bin x1.16;
bin x1.17;
bin x1.18;
bin x1.19;
bin x1.20;
bin x1.21;
bin x1.22;
bin x1.23;
bin x1.24;
bin x1.25;
bin x1.26;
bin x1.27;
bin x1.28;
bin x1.29;
bin y2;
bin x2.0;
bin x2.1;
bin x2.2;
bin x2.3;
bin x2.4;
bin x2.5;
bin x2.6;
bin x2.7;
bin x2.8;
bin x2.9;
bin x2.10;
bin x2.11;
bin x2.12;
bin x2.13;
bin x2.14;
bin x2.15;
bin x2.16;
bin x2.17;
bin x2.18;
bin x2.19;
bin x2.20;
bin x2.21;
bin x2.22;
bin x2.23;
bin x2.24;
bin x2.25;
bin x2.26;
bin x2.27;
bin x2.28;
bin x2.29;
bin y3;
bin x3.0;
bin x3.1;
bin x3.2;
bin x3.3;
bin x3.4;
bin x3.5;
bin x3.6;
bin x3.7;
bin x3.8;
bin x3.9;
bin x3.10;
bin x3.11;
bin x3.12;
bin x3.13;
bin x3.14;
bin x3.15;
bin x3.16;
bin x3.17;
bin x3.18;
bin x3.19;
bin x3.20;
bin x3.21;
bin x3.22;
bin x3.23;
bin x3.24;
bin x3.25;
bin x3.26;
bin x3.27;
bin x3.28;
bin x3.29;
bin y4;
bin x4.0;
bin x4.1;
bin x4.2;
bin x4.3;
bin x4.4;
bin x4.5;
bin x4.6;
bin x4.7;
bin x4.8;
bin x4.9;
bin x4.10;
bin x4.11;
bin x4.12;
bin x4.13;
bin x4.14;
bin x4.15;
bin x4.16;
bin x4.17;
bin x4.18;
bin x4.19;
bin x4.20;
bin x4.21;
bin x4.22;
bin x4.23;
bin x4.24;
bin x4.25;
bin x4.26;
bin x4.27;
bin x4.28;
bin x4.29;
bin y5;
bin x5.0;
bin x5.1;
bin x5.2;
bin x5.3;
bin x5.4;
bin x5.5;
bin x5.6;
bin x5.7;
bin x5.8;
bin x5.9;
bin x5.10;
bin x5.11;
bin x5.12;
bin x5.13;
bin x5.14;
bin x5.15;
bin x5.16;
bin x5.17;
bin x5.18;
bin x5.19;
bin x5.20;
bin x5.21;
bin x5.22;
bin x5.23;
bin x5.24;
bin x5.25;
bin x5.26;
bin x5.27;
bin x5.28;
bin x5.29;
bin y6;
bin x6.0;
bin x6.1;
bin x6.2;
bin x6.3;
bin x6.4;
bin x6.5;
bin x6.6;
bin x6.7;
bin x6.8;
bin x6.9;
bin x6.10;
bin x6.11;
bin x6.12;
bin x6.13;
bin x6.14;
bin x6.15;
bin x6.16;
bin x6.17;
bin x6.18;
bin x6.19;
bin x6.20;
bin x6.21;
bin x6.22;
bin x6.23;
bin x6.24;
bin x6.25;
bin x6.26;
bin x6.27;
bin x6.28;
bin x6.29;
bin y7;
bin x7.0;
bin x7.1;
bin x7.2;
bin x7.3;
bin x7.4;
bin x7.5;
bin x7.6;
bin x7.7;
bin x7.8;
bin x7.9;
bin x7.10;
bin x7.11;
bin x7.12;
bin x7.13;
bin x7.14;
bin x7.15;
bin x7.16;
bin x7.17;
bin x7.18;
bin x7.19;
bin x7.20;
bin x7.21;
bin x7.22;
bin x7.23;
bin x7.24;
bin x7.25;
bin x7.26;
bin x7.27;
bin x7.28;
bin x7.29;
bin y8;
bin x8.0;
bin x8.1;
bin x8.2;
bin x8.3;
bin x8.4;
bin x8.5;
bin x8.6;
bin x8.7;
bin x8.8;
bin x8.9;
bin x8.10;
bin x8.11;
bin x8.12;
bin x8.13;
bin x8.14;
bin x8.15;
bin x8.16;
bin x8.17;
bin x8.18;
bin x8.19;
bin x8.20;
bin x8.21;
bin x8.22;
bin x8.23;
bin x8.24;
bin x8.25;
bin x8.26;
bin x8.27;
bin x8.28;
bin x8.29;
bin y9;
bin x9.0;
bin x9.1;
bin x9.2;
bin x9.3;
bin x9.4;
bin x9.5;
bin x9.6;
bin x9.7;
bin x9.8;
bin x9.9;
bin x9.10;
bin x9.11;
bin x9.12;
bin x9.13;
bin x9.14;
bin x9.15;
bin x9.16;
bin x9.17;
bin x9.18;
bin x9.19;
bin x9.20;
bin x9.21;
bin x9.22;
bin x9.23;
bin x9.24;
bin x9.25;
bin x9.26;
bin x9.27;
bin x9.28;
bin x9.29;
bin y10;
bin x10.0;
bin x10.1;
bin x10.2;
bin x10.3;
bin x10.4;
bin x10.5;
bin x10.6;
bin x10.7;
bin x10.8;
bin x10.9;
bin x10.10;
bin x10.11;
bin x10.12;
bin x10.13;
bin x10.14;
bin x10.15;
bin x10.16;
bin x10.17;
bin x10.18;
bin x10.19;
bin x10.20;
bin x10.21;
bin x10.22;
bin x10.23;
bin x10.24;
bin x10.25;
bin x10.26;
bin x10.27;
bin x10.28;
bin x10.29;
bin y11;
bin x11.0;
bin x11.1;
bin x11.2;
bin x11.3;
bin x11.4;
bin x11.5;
bin x11.6;
bin x11.7;
bin x11.8;
bin x11.9;
bin x11.10;
bin x11.11;
bin x11.12;
bin x11.13;
bin x11.14;
bin x11.15;
bin x11.16;
bin x11.17;
bin x11.18;
bin x11.19;
bin x11.20;
bin x11.21;
bin x11.22;
bin x11.23;
bin x11.24;
bin x11.25;
bin x11.26;
bin x11.27;
bin x11.28;
bin x11.29;
bin y12;
bin x12.0;
bin x12.1;
bin x12.2;
bin x12.3;
bin x12.4;
bin x12.5;
bin x12.6;
bin x12.7;
bin x12.8;
bin x12.9;
bin x12.10;
bin x12.11;
bin x12.12;
bin x12.13;
bin x12.14;
bin x12.15;
bin x12.16;
bin x12.17;
bin x12.18;
bin x12.19;
bin x12.20;
bin x12.21;
bin x12.22;
bin x12.23;
bin x12.24;
bin x12.25;
bin x12.26;
bin x12.27;
bin x12.28;
bin x12.29;
bin y13;
bin x13.0;
bin x13.1;
bin x13.2;
bin x13.3;
bin x13.4;
bin x13.5;
bin x13.6;
bin x13.7;
bin x13.8;
bin x13.9;
bin x13.10;
bin x13.11;
bin x13.12;
bin x13.13;
bin x13.14;
bin x13.15;
bin x13.16;
bin x13.17;
bin x13.18;
bin x13.19;
bin x13.20;
bin x13.21;
bin x13.22;
bin x13.23;
bin x13.24;
bin x13.25;
bin x13.26;
bin x13.27;
bin x13.28;
bin x13.29;
bin y14;
bin x14.0;
bin x14.1;
bin x14.2;
bin x14.3;
bin x14.4;
bin x14.5;
bin x14.6;
bin x14.7;
bin x14.8;
bin x14.9;
bin x14.10;
bin x14.11;
bin x14.12;
bin x14.13;
bin x14.14;
bin x14.15;
bin x14.16;
bin x14.17;
bin x14.18;
bin x14.19;
bin x14.20;
bin x14.21;
bin x14.22;
bin x14.23;
bin x14.24;
bin x14.25;
bin x14.26;
bin x14.27;
bin x14.28;
bin x14.29;
bin y15;
bin x15.0;
bin x15.1;
bin x15.2;
bin x15.3;
bin x15.4;
bin x15.5;
bin x15.6;
bin x15.7;
bin x15.8;
bin x15.9;
bin x15.10;
bin x15.11;
bin x15.12;
bin x15.13;
bin x15.14;
bin x15.15;
bin x15.16;
bin x15.17;
bin x15.18;
bin x15.19;
bin x15.20;
bin x15.21;
bin x15.22;
bin x15.23;
bin x15.24;
bin x15.25;
bin x15.26;
bin x15.27;
bin x15.28;
bin x15.29;
bin y16;
bin x16.0;
bin x16.1;
bin x16.2;
bin x16.3;
bin x16.4;
bin x16.5;
bin x16.6;
bin x16.7;
bin x16.8;
bin x16.9;
bin x16.10;
bin x16.11;
bin x16.12;
bin x16.13;
bin x16.14;
bin x16.15;
bin x16.16;
bin x16.17;
bin x16.18;
bin x16.19;
bin x16.20;
bin x16.21;
bin x16.22;
bin x16.23;
bin x16.24;
bin x16.25;
bin x16.26;
bin x16.27;
bin x16.28;
bin x16.29;
bin y17;
bin x17.0;
bin x17.1;
bin x17.2;
bin x17.3;
bin x17.4;
bin x17.5;
bin x17.6;
bin x17.7;
bin x17.8;
bin x17.9;
bin x17.10;
bin x17.11;
bin x17.12;
bin x17.13;
bin x17.14;
bin x17.15;
bin x17.16;
bin x17.17;
bin x17.18;
bin x17.19;
bin x17.20;
bin x17.21;
bin x17.22;
bin x17.23;
bin x17.24;
bin x17.25;
bin x17.26;
bin x17.27;
bin x17.28;
bin x17.29;
bin y18;
bin x18.0;
bin x18.1;
bin x18.2;
bin x18.3;
bin x18.4;
bin x18.5;
bin x18.6;
bin x18.7;
bin x18.8;
bin x18.9;
bin x18.10;
bin x18.11;
bin x18.12;
bin x18.13;
bin x18.14;
bin x18.15;
bin x18.16;
bin x18.17;
bin x18.18;
bin x18.19;
bin x18.20;
bin x18.21;
bin x18.22;
bin x18.23;
bin x18.24;
bin x18.25;
bin x18.26;
bin x18.27;
bin x18.28;
bin x18.29;
bin y19;
bin x19.0;
bin x19.1;
bin x19.2;
bin x19.3;
bin x19.4;
bin x19.5;
bin x19.6;
bin x19.7;
bin x19.8;
bin x19.9;
bin x19.10;
bin x19.11;
bin x19.12;
bin x19.13;
bin x19.14;
bin x19.15;
bin x19.16;
bin x19.17;
bin x19.18;
bin x19.19;
bin x19.20;
bin x19.21;
bin x19.22;
bin x19.23;
bin x19.24;
bin x19.25;
bin x19.26;
bin x19.27;
bin x19.28;
bin x19.29;
bin y20;
bin x20.0;
bin x20.1;
bin x20.2;
bin x20.3;
bin x20.4;
bin x20.5;
bin x20.6;
bin x20.7;
bin x20.8;
bin x20.9;
bin x20.10;
bin x20.11;
bin x20.12;
bin x20.13;
bin x20.14;
bin x20.15;
bin x20.16;
bin x20.17;
bin x20.18;
bin x20.19;
bin x20.20;
bin x20.21;
bin x20.22;
bin x20.23;
bin x20.24;
bin x20.25;
bin x20.26;
bin x20.27;
bin x20.28;
bin x20.29;
bin y21;
bin x21.0;
bin x21.1;
bin x21.2;
bin x21.3;
bin x21.4;
bin x21.5;
bin x21.6;
bin x21.7;
bin x21.8;
bin x21.9;
bin x21.10;
bin x21.11;
bin x21.12;
bin x21.13;
bin x21.14;
bin x21.15;
bin x21.16;
bin x21.17;
bin x21.18;
bin x21.19;
bin x21.20;
bin x21.21;
bin x21.22;
bin x21.23;
bin x21.24;
bin x21.25;
bin x21.26;
bin x21.27;
bin x21.28;
bin x21.29;
bin y22;
bin x22.0;
bin x22.1;
bin x22.2;
bin x22.3;
bin x22.4;
bin x22.5;
bin x22.6;
bin x22.7;
bin x22.8;
bin x22.9;
bin x22.10;
bin x22.11;
bin x22.12;
bin x22.13;
bin x22.14;
bin x22.15;
bin x22.16;
bin x22.17;
bin x22.18;
bin x22.19;
bin x22.20;
bin x22.21;
bin x22.22;
bin x22.23;
bin x22.24;
bin x22.25;
bin x22.26;
bin x22.27;
bin x22.28;
bin x22.29;
bin y23;
bin x23.0;
bin x23.1;
bin x23.2;
bin x23.3;
bin x23.4;
bin x23.5;
bin x23.6;
bin x23.7;
bin x23.8;
bin x23.9;
bin x23.10;
bin x23.11;
bin x23.12;
bin x23.13;
bin x23.14;
bin x23.15;
bin x23.16;
bin x23.17;
bin x23.18;
bin x23.19;
bin x23.20;
bin x23.21;
bin x23.22;
bin x23.23;
bin x23.24;
bin x23.25;
bin x23.26;
bin x23.27;
bin x23.28;
bin x23.29;
bin y24;
bin x24.0;
bin x24.1;
bin x24.2;
bin x24.3;
bin x24.4;
bin x24.5;
bin x24.6;
bin x24.7;
bin x24.8;
bin x24.9;
bin x24.10;
bin x24.11;
bin x24.12;
bin x24.13;
bin x24.14;
bin x24.15;
bin x24.16;
bin x24.17;
bin x24.18;
bin x24.19;
bin x24.20;
bin x24.21;
bin x24.22;
bin x24.23;
bin x24.24;
bin x24.25;
bin x24.26;
bin x24.27;
bin x24.28;
bin x24.29;
bin y25;
bin x25.0;
bin x25.1;
bin x25.2;
bin x25.3;
bin x25.4;
bin x25.5;
bin x25.6;
bin x25.7;
bin x25.8;
bin x25.9;
bin x25.10;
bin x25.11;
bin x25.12;
bin x25.13;
bin x25.14;
bin x25.15;
bin x25.16;
bin x25.17;
bin x25.18;
bin x25.19;
bin x25.20;
bin x25.21;
bin x25.22;
bin x25.23;
bin x25.24;
bin x25.25;
bin x25.26;
bin x25.27;
bin x25.28;
bin x25.29;
bin y26;
bin x26.0;
bin x26.1;
bin x26.2;
bin x26.3;
bin x26.4;
bin x26.5;
bin x26.6;
bin x26.7;
bin x26.8;
bin x26.9;
bin x26.10;
bin x26.11;
bin x26.12;
bin x26.13;
bin x26.14;
bin x26.15;
bin x26.16;
bin x26.17;
bin x26.18;
bin x26.19;
bin x26.20;
bin x26.21;
bin x26.22;
bin x26.23;
bin x26.24;
bin x26.25;
bin x26.26;
bin x26.27;
bin x26.28;
bin x26.29;
bin y27;
bin x27.0;
bin x27.1;
bin x27.2;
bin x27.3;
bin x27.4;
bin x27.5;
bin x27.6;
bin x27.7;
bin x27.8;
bin x27.9;
bin x27.10;
bin x27.11;
bin x27.12;
bin x27.13;
bin x27.14;
bin x27.15;
bin x27.16;
bin x27.17;
bin x27.18;
bin x27.19;
bin x27.20;
bin x27.21;
bin x27.22;
bin x27.23;
bin x27.24;
bin x27.25;
bin x27.26;
bin x27.27;
bin x27.28;
bin x27.29;
bin y28;
bin x28.0;
bin x28.1;
bin x28.2;
bin x28.3;
bin x28.4;
bin x28.5;
bin x28.6;
bin x28.7;
bin x28.8;
bin x28.9;
bin x28.10;
bin x28.11;
bin x28.12;
bin x28.13;
bin x28.14;
bin x28.15;
bin x28.16;
bin x28.17;
bin x28.18;
bin x28.19;
bin x28.20;
bin x28.21;
bin x28.22;
bin x28.23;
bin x28.24;
bin x28.25;
bin x28.26;
bin x28.27;
bin x28.28;
bin x28.29;
bin y29;
bin x29.0;
bin x29.1;
bin x29.2;
bin x29.3;
bin x29.4;
bin x29.5;
bin x29.6;
bin x29.7;
bin x29.8;
bin x29.9;
bin x29.10;
bin x29.11;
bin x29.12;
bin x29.13;
bin x29.14;
bin x29.15;
bin x29.16;
bin x29.17;
bin x29.18;
bin x29.19;
bin x29.20;
bin x29.21;
bin x29.22;
bin x29.23;
bin x29.24;
bin x29.25;
bin x29.26;
bin x29.27;
bin x29.28;
bin x29.29;
