Output/BruteForce/Random_030_04_6.ans
Facilties: 0 14 16 21 25 26 Score: 39
