Output/Exact/Random_030_04_6.lp.out
CPU Time for Parsing input: 0.003069s (0.003069s total since program start)
CPU Time for solving: 11.2905s (11.2936s total since program start)

Value of objective function: 39.00000000
